************************************************************************
file with basedata            : md359_.bas
initial value random generator: 1406400898
************************************************************************
projects                      :  1
jobs (incl. supersource/sink ):  22
horizon                       :  166
RESOURCES
  - renewable                 :  2   R
  - nonrenewable              :  2   N
  - doubly constrained        :  0   D
************************************************************************
PROJECT INFORMATION:
pronr.  #jobs rel.date duedate tardcost  MPM-Time
    1     20      0       22       13       22
************************************************************************
PRECEDENCE RELATIONS:
jobnr.    #modes  #successors   successors
   1        1          3           2   3   4
   2        3          3           6   9  14
   3        3          2           5   8
   4        3          2           7  11
   5        3          3          12  17  19
   6        3          2          18  19
   7        3          2          14  16
   8        3          2           9  10
   9        3          2          15  16
  10        3          3          12  13  16
  11        3          2          15  17
  12        3          2          14  18
  13        3          1          17
  14        3          2          15  20
  15        3          1          21
  16        3          2          19  20
  17        3          2          18  21
  18        3          1          20
  19        3          1          22
  20        3          1          22
  21        3          1          22
  22        1          0        
************************************************************************
REQUESTS/DURATIONS:
jobnr. mode duration  R 1  R 2  N 1  N 2
------------------------------------------------------------------------
  1      1     0       0    0    0    0
  2      1     2       5   10    8    3
         2     3       5    9    6    2
         3     5       3    6    5    1
  3      1     2       8    7    8    9
         2     3       6    4    7    9
         3    10       5    2    7    9
  4      1     1      10    3    4    3
         2     5       9    2    4    3
         3     6       9    1    4    2
  5      1     4       4    4    7    6
         2     4       5    4    5    5
         3     9       2    4    3    3
  6      1     7       3    5    5    8
         2     8       3    4    5    7
         3    10       2    3    5    4
  7      1     1       2    7    5    6
         2     7       2    4    4    5
         3     8       2    3    3    5
  8      1     5       8    6    4    6
         2     8       6    4    4    6
         3    10       3    2    1    6
  9      1     4       4    9    4    5
         2     7       3    9    4    4
         3    10       2    9    4    4
 10      1     6       8   10   10    6
         2     6       9    9    8    7
         3     9       5    9    5    3
 11      1     1       5    8    3    3
         2     6       5    6    2    2
         3     9       5    4    2    2
 12      1     1       9    7    8    6
         2     2       7    6    7    4
         3     9       5    5    5    2
 13      1     1       7    9   10    6
         2     1       8    9    7    9
         3     4       4    8    6    6
 14      1     2       7    6   10    8
         2     4       6    5    8    7
         3     6       6    4    8    6
 15      1     3       4    8    9    8
         2     5       2    3    8    8
         3     7       1    2    8    6
 16      1     4       9    6    8    7
         2     4      10    5    8    8
         3    10       8    1    8    6
 17      1     3       7    7    8    9
         2     7       6    7    8    4
         3     9       2    4    8    3
 18      1     1       7    3    9    8
         2     8       5    3    9    5
         3    10       3    2    8    3
 19      1     1       9    6    4    6
         2     3       7    5    4    4
         3     7       7    3    3    4
 20      1     2       5    7    1    9
         2     5       5    5    1    9
         3     9       2    1    1    8
 21      1     3       9    8    7   10
         2     8       8    8    5   10
         3     9       7    7    5    9
 22      1     0       0    0    0    0
************************************************************************
RESOURCEAVAILABILITIES:
  R 1  R 2  N 1  N 2
   23   26  107  103
************************************************************************
MAXIMAL LAGS:
from  to  type  delay
    1   22   ES      0
    1    2   ES      0
    2   22   ES      0
    1    3   ES      0
    3   22   ES      0
    1    4   ES      0
    4   22   ES      0
    1    5   ES      0
    5   22   ES      0
    1    6   ES      0
    6   22   ES      0
    1    7   ES      0
    7   22   ES      0
    1    8   ES      0
    8   22   ES      0
    1    9   ES      0
    9   22   ES      0
    1   10   ES      0
   10   22   ES      0
    1   11   ES      0
   11   22   ES      0
    1   12   ES      0
   12   22   ES      0
    1   13   ES      0
   13   22   ES      0
    1   14   ES      0
   14   22   ES      0
    1   15   ES      0
   15   22   ES      0
    1   16   ES      0
   16   22   ES      0
    1   17   ES      0
   17   22   ES      0
    1   18   ES      0
   18   22   ES      0
    1   19   ES      0
   19   22   ES      0
    1   20   ES      0
   20   22   ES      0
    1   21   ES      0
   21   22   ES      0
    1   22   ES      0
    2    6   SS     -5
    2    6   SE      3
    6    2   SE      0
    2    6   ES      0
    2    6   EE      2
    2    9   SS      1
    2    9   SE      5
    2    9   ES      3
    2    9   EE     -3
    2   14   SS    -12
    2   14   SE     -4
    2   14   ES     -8
    2   14   EE    -12
    3    5   SS      3
    3    5   SE      1
    3    5   ES      2
    3    5   EE     -1
    3    8   SS    -10
    3    8   SE     -3
    3    8   ES      7
    3    8   EE      2
    4    7   SS     -1
    4    7   SE     -6
    4    7   ES     -3
    4    7   EE    -10
    4   11   SS    -10
    4   11   SE     -2
    4   11   ES     12
    4   11   EE      3
    5   12   SS     12
    5   12   SE     -6
    5   12   ES      8
    5   12   EE     12
    5   17   SS     -6
    5   17   SE    -11
    5   17   ES      7
    5   17   EE      6
    5   19   SS    -11
    5   19   SE    -11
    5   19   ES      8
    5   19   EE     10
    6   18   SS    -11
    6   18   SE      6
    6   18   ES     -4
    6   18   EE     11
    6   19   SS    -11
    6   19   SE      1
    6   19   ES     -1
    6   19   EE      0
    7   14   SS     -1
    7   14   SE     11
    7   14   ES      4
    7   14   EE     -8
    7   16   SS     -5
    7   16   SE     11
    7   16   ES     -3
    7   16   EE     11
    8    9   SS     -4
    8    9   SE     -2
    8    9   ES     -5
    8    9   EE      4
    8   10   SS     -2
    8   10   SE      8
    8   10   ES      9
    8   10   EE      1
    9   15   SS     -1
    9   15   SE     -5
    9   15   ES     -2
    9   15   EE     -7
    9   16   SS     -6
    9   16   SE      9
    9   16   ES     -8
    9   16   EE      1
   10   12   SS      1
   10   12   SE    -11
   10   12   ES      8
   10   12   EE      9
   10   13   SS      9
   10   13   SE     12
   10   13   ES    -12
   10   13   EE    -11
   10   16   SS     -4
   10   16   SE      2
   10   16   ES    -12
   10   16   EE      6
   11   15   SS     11
   11   15   SE    -10
   11   15   ES    -10
   11   15   EE    -11
   11   17   SS     11
   11   17   SE     -5
   11   17   ES     -3
   11   17   EE      6
   12   14   SS     12
   12   14   SE      9
   12   14   ES     -1
   12   14   EE      1
   12   18   SS    -10
   12   18   SE    -10
   12   18   ES      7
   12   18   EE     10
   13   17   SS     12
   13   17   SE      7
   13   17   ES      4
   13   17   EE      6
   14   15   SS      6
   14   15   SE     11
   14   15   ES      0
   14   15   EE     -2
   14   20   SS    -10
   14   20   SE    -10
   14   20   ES      5
   14   20   EE     -9
   15   21   SS      9
   15   21   SE     -2
   15   21   ES      4
   15   21   EE     -6
   16   19   SS     11
   16   19   SE      2
   16   19   ES     -4
   16   19   EE      0
   16   20   SS      1
   16   20   SE    -10
   16   20   ES     -3
   16   20   EE     11
   17   18   SS     -3
   17   18   SE      3
   17   18   ES      2
   17   18   EE      1
   17   21   SS    -10
   17   21   SE      4
   17   21   ES      8
   17   21   EE     12
   18   20   SS      8
   18   20   SE      1
   18   20   ES      4
   18   20   EE      3
************************************************************************
